Ni2
1.0
1.000000 1.000000 0.000000
0.000000 1.000000 1.000000
1.000000 0.000000 1.000000
Ni
2
direct
0.000000 0.000000 0.000000 Ni
0.250000 0.250000 0.250000 Ni
